(declare-const a Real)
(declare-const b Real)
(declare-const c Real)
(assert (= (* a b c) 1))
(assert (> a 0))
(assert (> b 0))
(assert (> c 0))
(assert (not (<= (+ (* 312174 (pow a 4)) (* 312174 (pow b 4)) (* (pow (* (pow a (* 171864416 (pow a 2))) (pow b (* 224555360 (pow b 2)))) (pow (+ (* 85932208 (pow a 2)) (* 112277680 (pow b 2))) -1)) (+ (* -112277680 (pow b 2)) (* -85932208 (pow a 2)))) (* -226492416 (pow a (pow 3 -1)) (pow b (/ 11 3))) (* -113246208 (pow a (/ 10 3)) (pow b (/ 2 3))) (* 1873044 (pow a 2) (pow b 2)) (* 128133880 b (pow a 3)) (* 407317240 a (pow b 3))) 0)))
(check-sat)
(get-model)
(exit)